0 39 47 22 38 33 14 15 23 16 29 2
39 0 25 45 32 34 45 45 50 41 32 11
47 25 0 44 5 33 22 39 5 49 35 23
22 45 44 0 11 4 36 17 8 34 21 4
38 32 5 11 0 40 49 27 31 5 38 47
33 34 33 4 40 0 33 27 23 43 33 32
14 45 22 36 49 33 0 1 24 36 47 4
15 45 39 17 27 27 1 0 8 3 28 19
23 50 5 8 31 23 24 8 0 1 36 27
16 41 49 34 5 43 36 3 1 0 33 18
29 32 35 21 38 33 47 28 36 33 0 35
2 11 23 4 47 32 4 19 27 18 35 0
